
Gurobi 12.0.1 (win64, C++) logging started Tue Apr 22 11:57:06 2025

Set parameter Username
Set parameter LicenseID to value 2618661
Academic license - for non-commercial use only - expires 2026-02-05
Set parameter Threads to value 8
Set parameter LazyConstraints to value 1
Set parameter PreCrush to value 1
Set parameter Seed to value 10
Set parameter Cuts to value -1
Set parameter TimeLimit to value 28800
Set parameter NumericFocus to value 0
Set parameter SolutionLimit to value 10000
Gurobi Optimizer version 12.0.1 build v12.0.1rc0 (win64 - Windows Server 2022.0 (20348.2))

CPU model: AMD EPYC 7513 32-Core Processor, instruction set [SSE2|AVX|AVX2]
Thread count: 18 physical cores, 18 logical processors, using up to 8 threads

Non-default parameters:
SolutionLimit  10000
TimeLimit  28800
PreCrush  1
Seed  10
Threads  8
LazyConstraints  1

Optimize a model with 562 rows, 1089 columns and 3168 nonzeros
Model fingerprint: 0x77001114
Variable types: 0 continuous, 1089 integer (1089 binary)
Coefficient statistics:
  Matrix range     [1e+00, 1e+00]
  Objective range  [1e+00, 1e+02]
  Bounds range     [1e+00, 1e+00]
  RHS range        [1e+00, 5e+00]

Warning: Completing partial solution with 1019 unfixed non-continuous variables out of 1089
User MIP start produced solution with objective 987.89 (0.00s)
Loaded user MIP start with objective 987.89

Presolve removed 1 rows and 33 columns
Presolve time: 0.01s
Presolved: 561 rows, 1056 columns, 3072 nonzeros
Variable types: 0 continuous, 1056 integer (1056 binary)

Root relaxation: objective 7.477113e+02, 129 iterations, 0.00 seconds (0.00 work units)

    Nodes    |    Current Node    |     Objective Bounds      |     Work
 Expl Unexpl |  Obj  Depth IntInf | Incumbent    BestBd   Gap | It/Node Time

     0     0  747.71134    0   30  987.89027  747.71134  24.3%     -    0s
     0     0  756.89849    0   28  987.89027  756.89849  23.4%     -    0s
H    0     0                     986.1286435  756.89849  23.2%     -    0s
     0     0  853.30398    0   22  986.12864  853.30398  13.5%     -    0s
     0     0  877.67073    0   48  986.12864  877.67073  11.0%     -    0s
     0     0  905.48851    0    -  986.12864  905.48851  8.18%     -    0s
     0     0  913.18557    0   71  986.12864  913.18557  7.40%     -    0s
     0     0  917.82174    0   42  986.12864  917.82174  6.93%     -    0s
H    0     0                     985.9027188  917.82174  6.91%     -    0s
     0     0  932.36517    0   62  985.90272  932.36517  5.43%     -    0s
     0     0  935.27820    0   27  985.90272  935.27820  5.13%     -    0s
     0     2  935.27820    0   25  985.90272  935.27820  5.13%     -    1s
   374   232  981.53033   36   72  985.90272  975.84318  1.02%  43.7    5s
* 3397   309              25     985.7519186  982.46147  0.33%  37.8    9s

Cutting planes:
  Lazy constraints: 1511

Explored 3978 nodes (144416 simplex iterations) in 9.93 seconds (7.68 work units)
Thread count was 8 (of 18 available processors)

Solution count 4: 985.752 985.903 986.129 987.89 

Optimal solution found (tolerance 1.00e-04)
Best objective 9.857519185742e+02, best bound 9.857519185742e+02, gap 0.0000%

User-callback calls 8893, time in user-callback 3.65 sec
### START EXACT APPROACH ###
ProblemVariant: 6
### START PREPROCESSING ###
## Start infeasible path procedure ## 
Deleted arcs: 0
Infeasible tail paths: 0
Infeasible 2-node combinations: 0
Deleted arcs: 0
Infeasible tail paths: 0
Infeasible 2-node combinations: 0
## Start start solution procedure ##
Start solution with 5 Vehicles and total costs 987.89 in 0.0022516 s.
### END PREPROCESSING ###
Route 0 0-4-12-2-3-0 : weight util 0.268750 | volume util 0.439333 | 
Route 1 0-11-32-10-8-7-6-5-0 : weight util 0.796250 | volume util 0.992533 | 
Route 2 0-13-1-15-14-31-30-0 : weight util 0.900000 | volume util 0.991622 | 
Route 3 0-17-26-27-16-28-29-0 : weight util 0.918750 | volume util 0.935067 | 
Route 4 0-25-24-23-22-20-21-19-18-9-0 : weight util 0.787500 | volume util 0.990133 | 
